119
0 89 94 116 80 108 115 73 16 46 
48 47 11 31 90 49 45 79 59 55 
107 84 68 43 63 69 44 37 40 29 
114 72 1 27 66 18 76 20 51 113 
105 32 9 61 86 23 57 10 78 92 
38 83 8 60 82 5 19 3 17 33 
81 34 118 52 109 88 35 24 93 7 
70 58 64 95 22 112 111 91 62 85 
74 96 97 41 75 56 21 30 54 99 
100 98 65 25 28 13 14 2 42 36 
101 12 15 102 103 67 26 53 106 4 
39 77 117 110 71 6 104 50 87 
